59 67 69 14 45 16 4 7 1 13 63 57 39 1 20 24 52 31 10 50 34 1 25 23 27 47 64 12 1 29 8 35 66 28 1 30 41 40 9 60 42 21 46 36 1 32 19 54 3 65 62 22 68 1 44 53 17 49 37 2 1 55 6 38 51 11 33 18 1 58 43 15 26 48 56 61 5 1 59 67 69 14 45 16 4 7 1  (924)
Cost 1489.98

